NAME 
ROWS
 N  OBJ
 L  R0      
 L  R1      
 E  R2      
 E  R3      
 E  R4      
 E  R5      
 E  R6      
 E  R7      
 E  R8      
 E  R9      
 E  R10     
 E  R11     
 E  R12     
 E  R13     
 E  R14     
 E  R15     
 E  R16     
 E  R17     
 E  R18     
 E  R19     
 E  R20     
 E  R21     
 E  R22     
 E  R23     
 E  R24     
 E  R25     
 E  R26     
COLUMNS
    MARKER    'MARKER'                 'INTORG'
    I0(13)    OBJ       -98
    I0(13)    R0        30
    I0(13)    R1        -149
    I0(13)    R3        -1
    I0(13)    R4        12
    I0(13)    R5        7
    I0(13)    R6        11
    I0(13)    R7        15
    I0(13)    R8        -1
    I0(13)    R9        5
    I0(13)    R13       15
    I0(13)    R15       12
    I0(13)    R16       8
    I0(13)    R26       1
    I1(11)    OBJ       -23
    I1(11)    R0        98
    I1(11)    R1        45
    I1(11)    R4        2
    I1(11)    R5        14
    I1(11)    R6        15
    I1(11)    R9        16
    I1(11)    R12       16
    I1(11)    R13       17
    I1(11)    R14       7
    I1(11)    R15       14
    I1(11)    R26       1
    I2(12)    OBJ       8
    I2(12)    R0        -1
    I2(12)    R1        142
    I2(12)    R2        10
    I2(12)    R3        5
    I2(12)    R5        16
    I2(12)    R6        8
    I2(12)    R8        15
    I2(12)    R9        18
    I2(12)    R12       6
    I2(12)    R13       11
    I2(12)    R14       8
    I2(12)    R26       1
    I3(15)    OBJ       146
    I3(15)    R0        119
    I3(15)    R1        22
    I3(15)    R3        14
    I3(15)    R4        5
    I3(15)    R6        15
    I3(15)    R7        1
    I3(15)    R8        17
    I3(15)    R9        11
    I3(15)    R10       5
    I3(15)    R11       11
    I3(15)    R12       2
    I3(15)    R13       5
    I3(15)    R14       13
    I3(15)    R16       19
    I3(15)    R26       1
    I4(10)    OBJ       159
    I4(10)    R0        43
    I4(10)    R1        76
    I4(10)    R2        5
    I4(10)    R3        11
    I4(10)    R7        12
    I4(10)    R8        18
    I4(10)    R9        7
    I4(10)    R11       2
    I4(10)    R14       15
    I4(10)    R26       1
    I5(11)    OBJ       -109
    I5(11)    R0        -125
    I5(11)    R1        -91
    I5(11)    R4        2
    I5(11)    R7        16
    I5(11)    R8        9
    I5(11)    R9        18
    I5(11)    R10       10
    I5(11)    R11       4
    I5(11)    R12       6
    I5(11)    R13       17
    I5(11)    R26       1
    I6(14)    OBJ       -82
    I6(14)    R0        -172
    I6(14)    R1        -172
    I6(14)    R3        4
    I6(14)    R4        5
    I6(14)    R5        7
    I6(14)    R8        15
    I6(14)    R9        15
    I6(14)    R10       2
    I6(14)    R11       3
    I6(14)    R12       8
    I6(14)    R14       9
    I6(14)    R15       7
    I6(14)    R16       2
    I6(14)    R26       1
    I7(13)    OBJ       -198
    I7(13)    R0        -80
    I7(13)    R1        5
    I7(13)    R3        12
    I7(13)    R4        5
    I7(13)    R6        18
    I7(13)    R9        8
    I7(13)    R10       15
    I7(13)    R11       3
    I7(13)    R12       19
    I7(13)    R13       16
    I7(13)    R15       7
    I7(13)    R16       5
    I7(13)    R26       1
    I8(10)    OBJ       70
    I8(10)    R0        -32
    I8(10)    R1        104
    I8(10)    R5        14
    I8(10)    R7        15
    I8(10)    R8        9
    I8(10)    R10       -1
    I8(10)    R14       12
    I8(10)    R15       2
    I8(10)    R16       6
    I8(10)    R26       1
    I9(11)    OBJ       177
    I9(11)    R0        83
    I9(11)    R1        -20
    I9(11)    R3        3
    I9(11)    R4        2
    I9(11)    R5        10
    I9(11)    R7        18
    I9(11)    R8        4
    I9(11)    R14       9
    I9(11)    R15       12
    I9(11)    R16       13
    I9(11)    R26       1
    I10(10)   OBJ       -107
    I10(10)   R0        35
    I10(10)   R1        -21
    I10(10)   R4        14
    I10(10)   R5        16
    I10(10)   R8        8
    I10(10)   R11       16
    I10(10)   R13       17
    I10(10)   R14       15
    I10(10)   R15       10
    I10(10)   R26       1
    I11(13)   OBJ       -75
    I11(13)   R0        -170
    I11(13)   R1        167
    I11(13)   R2        18
    I11(13)   R3        1
    I11(13)   R4        6
    I11(13)   R5        11
    I11(13)   R6        8
    I11(13)   R9        14
    I11(13)   R10       9
    I11(13)   R11       8
    I11(13)   R15       18
    I11(13)   R16       3
    I11(13)   R26       1
    I12(10)   OBJ       111
    I12(10)   R0        -131
    I12(10)   R1        -11
    I12(10)   R2        6
    I12(10)   R6        3
    I12(10)   R9        4
    I12(10)   R12       16
    I12(10)   R13       10
    I12(10)   R15       19
    I12(10)   R16       15
    I12(10)   R26       1
    I13(14)   OBJ       56
    I13(14)   R0        -141
    I13(14)   R1        -149
    I13(14)   R2        3
    I13(14)   R4        4
    I13(14)   R5        19
    I13(14)   R7        18
    I13(14)   R8        11
    I13(14)   R9        5
    I13(14)   R12       19
    I13(14)   R13       17
    I13(14)   R14       17
    I13(14)   R15       7
    I13(14)   R16       3
    I13(14)   R26       1
    I14(11)   OBJ       -37
    I14(11)   R0        -163
    I14(11)   R1        134
    I14(11)   R3        4
    I14(11)   R4        14
    I14(11)   R6        4
    I14(11)   R8        16
    I14(11)   R9        7
    I14(11)   R12       -1
    I14(11)   R13       1
    I14(11)   R15       10
    I14(11)   R26       1
    MARKER    'MARKER'                 'INTEND'
    C15(21)   OBJ       7
    C15(21)   R0        -2
    C15(21)   R1        -3
    C15(21)   R2        8
    C15(21)   R4        19
    C15(21)   R5        11
    C15(21)   R6        11
    C15(21)   R7        7
    C15(21)   R9        -1
    C15(21)   R10       -1
    C15(21)   R11       12
    C15(21)   R13       19
    C15(21)   R14       4
    C15(21)   R16       3
    C15(21)   R17       16
    C15(21)   R18       9
    C15(21)   R19       4
    C15(21)   R20       1
    C15(21)   R21       12
    C15(21)   R23       10
    C15(21)   R24       5
    C15(21)   R25       14
    C16(21)   OBJ       -10
    C16(21)   R0        2
    C16(21)   R1        -5
    C16(21)   R2        19
    C16(21)   R3        12
    C16(21)   R4        1
    C16(21)   R6        10
    C16(21)   R7        5
    C16(21)   R8        8
    C16(21)   R9        13
    C16(21)   R10       6
    C16(21)   R11       1
    C16(21)   R13       8
    C16(21)   R14       15
    C16(21)   R16       12
    C16(21)   R17       6
    C16(21)   R18       15
    C16(21)   R19       10
    C16(21)   R20       14
    C16(21)   R22       16
    C16(21)   R23       4
    C16(21)   R24       2
    C17(20)   OBJ       9
    C17(20)   R0        -6
    C17(20)   R1        7
    C17(20)   R2        18
    C17(20)   R3        9
    C17(20)   R4        1
    C17(20)   R5        5
    C17(20)   R6        18
    C17(20)   R7        6
    C17(20)   R9        3
    C17(20)   R10       11
    C17(20)   R11       19
    C17(20)   R12       12
    C17(20)   R14       9
    C17(20)   R16       9
    C17(20)   R18       14
    C17(20)   R20       9
    C17(20)   R21       12
    C17(20)   R22       19
    C17(20)   R24       10
    C17(20)   R25       3
    C18(17)   OBJ       -9
    C18(17)   R0        6
    C18(17)   R1        7
    C18(17)   R5        7
    C18(17)   R8        5
    C18(17)   R9        16
    C18(17)   R12       5
    C18(17)   R13       15
    C18(17)   R14       1
    C18(17)   R15       15
    C18(17)   R16       4
    C18(17)   R17       3
    C18(17)   R18       9
    C18(17)   R19       11
    C18(17)   R21       6
    C18(17)   R22       6
    C18(17)   R24       4
    C18(17)   R25       18
    C19(15)   OBJ       -8
    C19(15)   R0        -1
    C19(15)   R1        6
    C19(15)   R2        18
    C19(15)   R3        9
    C19(15)   R4        12
    C19(15)   R9        4
    C19(15)   R13       -1
    C19(15)   R14       12
    C19(15)   R16       14
    C19(15)   R17       -1
    C19(15)   R19       12
    C19(15)   R21       6
    C19(15)   R22       2
    C19(15)   R23       15
    C19(15)   R24       1
    C20(18)   OBJ       8
    C20(18)   R0        7
    C20(18)   R1        -2
    C20(18)   R3        1
    C20(18)   R4        3
    C20(18)   R6        15
    C20(18)   R7        5
    C20(18)   R9        2
    C20(18)   R11       18
    C20(18)   R12       7
    C20(18)   R13       11
    C20(18)   R14       13
    C20(18)   R17       4
    C20(18)   R18       -1
    C20(18)   R19       10
    C20(18)   R20       11
    C20(18)   R21       8
    C20(18)   R24       15
    C20(18)   R25       2
    C21(19)   OBJ       3
    C21(19)   R0        9
    C21(19)   R1        3
    C21(19)   R2        5
    C21(19)   R4        9
    C21(19)   R5        8
    C21(19)   R6        13
    C21(19)   R9        18
    C21(19)   R10       5
    C21(19)   R12       16
    C21(19)   R13       17
    C21(19)   R14       6
    C21(19)   R15       7
    C21(19)   R16       10
    C21(19)   R19       19
    C21(19)   R20       13
    C21(19)   R22       4
    C21(19)   R23       3
    C21(19)   R24       19
    C21(19)   R25       15
    C22(18)   OBJ       8
    C22(18)   R0        -9
    C22(18)   R1        9
    C22(18)   R2        13
    C22(18)   R3        11
    C22(18)   R4        17
    C22(18)   R5        6
    C22(18)   R6        16
    C22(18)   R7        12
    C22(18)   R8        9
    C22(18)   R10       17
    C22(18)   R11       12
    C22(18)   R13       2
    C22(18)   R16       1
    C22(18)   R17       18
    C22(18)   R19       18
    C22(18)   R20       11
    C22(18)   R24       1
    C22(18)   R25       4
    C23(16)   OBJ       1
    C23(16)   R0        -4
    C23(16)   R1        4
    C23(16)   R3        18
    C23(16)   R4        15
    C23(16)   R5        2
    C23(16)   R6        11
    C23(16)   R7        9
    C23(16)   R10       -1
    C23(16)   R16       2
    C23(16)   R18       6
    C23(16)   R19       12
    C23(16)   R20       10
    C23(16)   R21       13
    C23(16)   R22       -1
    C23(16)   R24       17
    C23(16)   R25       4
    C24(19)   OBJ       7
    C24(19)   R0        -1
    C24(19)   R1        -9
    C24(19)   R2        16
    C24(19)   R3        15
    C24(19)   R4        9
    C24(19)   R5        11
    C24(19)   R6        6
    C24(19)   R7        5
    C24(19)   R8        18
    C24(19)   R9        9
    C24(19)   R10       5
    C24(19)   R13       12
    C24(19)   R16       15
    C24(19)   R18       8
    C24(19)   R19       8
    C24(19)   R20       12
    C24(19)   R23       13
    C24(19)   R24       16
    C24(19)   R25       15
    C25(1)    R2        1
    C26(1)    R3        1
    C27(1)    R4        1
    C28(1)    R5        1
    C29(1)    R6        1
    C30(1)    R7        1
    C31(1)    R8        1
    C32(1)    R9        1
    C33(1)    R10       1
    C34(1)    R11       1
    C35(1)    R12       1
    C36(1)    R13       1
    C37(1)    R14       1
    C38(1)    R15       1
    C39(1)    R16       1
    C40(1)    R17       1
    C41(1)    R18       1
    C42(1)    R19       1
    C43(1)    R20       1
    C44(1)    R21       1
    C45(1)    R22       1
    C46(1)    R23       1
    C47(1)    R24       1
    C48(1)    R25       1
    C49(1)    R26       1
RHS
    RHS1      R0        -213.732562938506
    RHS1      R1        -1.1493066446553874e+02
    RHS1      R2        90
    RHS1      R3        77
    RHS1      R4        67
    RHS1      R5        82
    RHS1      R6        71
    RHS1      R7        91
    RHS1      R8        56
    RHS1      R9        66
    RHS1      R10       84
    RHS1      R11       97
    RHS1      R12       74
    RHS1      R13       93
    RHS1      R14       74
    RHS1      R15       62
    RHS1      R16       99
    RHS1      R17       62
    RHS1      R18       66
    RHS1      R19       57
    RHS1      R20       66
    RHS1      R21       62
    RHS1      R22       86
    RHS1      R23       69
    RHS1      R24       51
    RHS1      R25       65
    RHS1      R26       5
BOUNDS
 UP BND1      I0(13)    2
 UP BND1      I1(11)    2
 UP BND1      I2(12)    2
 UP BND1      I3(15)    2
 UP BND1      I4(10)    2
 UP BND1      I5(11)    2
 UP BND1      I6(14)    2
 UP BND1      I7(13)    2
 UP BND1      I8(10)    2
 UP BND1      I9(11)    2
 UP BND1      I10(10)   2
 UP BND1      I11(13)   2
 UP BND1      I12(10)   2
 UP BND1      I13(14)   2
 UP BND1      I14(11)   2
ENDATA
